TCS_Benchmarks/redos_fix/regexlib1_output_distinct_1476_1475_0_0.smt2
(set-logic QF_S)
(declare-const x String)
(assert (str.in.re x (re.inter  (re.++ (re.* (re.range "\u{30}" "\u{39}") ) (re.+ (re.range "\u{30}" "\u{39}") ))  (re.++ (re.* (re.range "\u{30}" "\u{39}") ) (re.++  (re.union (re.range "\u{30}" "\u{39}") (re.union (re.range "\u{00}" "\u{2f}") (re.range "\u{3a}" "\u{ff}"))) (re.+ (re.range "\u{30}" "\u{39}") ))) )))
(check-sat)
(get-model)