TCS_Benchmarks/redos_fix/regexlib1_output_distinct_1476_1475_0_0.txt
(\d*)(\d+)
(\d*)(([\d\D]))(\d+)